networks/zoo_13_9/zoo_13_9.txt
Number of groups: 7
Flow 1: {1 2} 
Flow 3: {2 3} {3 10} 
Flow 4: {2 6} {6 13} 
Flow 5: {3 2} 
Flow 6: {4 2} 
Flow 7: {6 2} {2 9} 
Flow 8: {7 2} {2 1} {1 8} 
Time taken running everything: 0 seconds
