networks/zoo_13_9/zoo_13_9.sol
<?xml version = "1.0" encoding="UTF-8" standalone="yes"?>
<CPLEXSolution version="1.2">
 <header
   problemName="networks/zoo_13_9/zoo_13_9.lp"
   solutionName="incumbent"
   solutionIndex="-1"
   objectiveValue="7"
   solutionTypeValue="3"
   solutionTypeString="primal"
   solutionStatusValue="101"
   solutionStatusString="integer optimal solution"
   solutionMethodString="mip"
   primalFeasible="1"
   dualFeasible="1"
   MIPNodes="0"
   MIPIterations="11"
   writeLevel="3"/>
 <quality
   epInt="1.0000000000000001e-05"
   epRHS="9.9999999999999995e-07"
   maxIntInfeas="0"
   maxPrimalInfeas="0"
   maxX="2"
   maxSlack="8"/>
 <variables>
  <variable name="Y(1,1)" index="0" value="1"/>
  <variable name="Y(3,3)" index="22" value="1"/>
  <variable name="Y(4,6)" index="34" value="1"/>
  <variable name="Y(5,3)" index="42" value="1"/>
  <variable name="Y(6,4)" index="53" value="1"/>
  <variable name="Y(7,2)" index="61" value="1"/>
  <variable name="Y(8,1)" index="70" value="1"/>
  <variable name="X(1,2,1)" index="90" value="1"/>
  <variable name="X(1,8,8)" index="106" value="1"/>
  <variable name="X(2,1,8)" index="115" value="1"/>
  <variable name="X(2,3,3)" index="119" value="1"/>
  <variable name="X(2,6,4)" index="129" value="1"/>
  <variable name="X(2,9,7)" index="141" value="1"/>
  <variable name="X(3,2,5)" index="148" value="1"/>
  <variable name="X(3,10,3)" index="155" value="1"/>
  <variable name="X(4,2,6)" index="167" value="1"/>
  <variable name="X(6,2,7)" index="177" value="1"/>
  <variable name="X(6,13,4)" index="183" value="1"/>
  <variable name="X(7,2,8)" index="196" value="1"/>
  <variable name="C(3,3)" index="203" value="1"/>
  <variable name="C(4,6)" index="205" value="1"/>
  <variable name="C(7,2)" index="211" value="1"/>
  <variable name="C(8,2)" index="213" value="1"/>
  <variable name="C(8,1)" index="214" value="2"/>
 </variables>
</CPLEXSolution>
